100
100
710 20
231 4
138 22
128 8
174 20
9 25
73 15
916 25
899 8
927 25
801 5
462 3
753 11
421 19
299 21
135 25
64 8
667 20
95 13
935 2
462 13
518 21
166 25
321 25
94 4
712 22
673 11
963 18
335 8
206 25
402 20
145 25
721 1
855 3
717 13
669 22
337 21
400 10
897 5
763 5
826 20
723 14
157 2
917 12
664 13
992 22
50 1
500 21
471 16
615 8
918 24
5 22
163 11
867 8
587 13
43 12
840 2
25 13
284 24
663 19
121 1
842 19
933 14
14 23
73 9
830 1
484 24
687 9
610 24
198 24
881 20
803 6
323 9
344 4
135 13
793 20
605 6
630 10
184 17
110 8
69 4
346 16
454 16
538 14
903 14
68 6
884 1
316 1
569 24
266 20
391 10
552 4
631 10
972 9
107 8
832 9
845 10
188 11
439 4
86 16
